WARNING: for repeatability, setting FPU to use double precision
============================[ Problem Statistics ]=============================
|                                                                             |
|  Number of variables:          4680                                         |
|  Number of clauses:           39564                                         |
|  Parse time:                   0.01 s                                       |
|                                                                             |
c ============================[ Search Statistics ]==============================
c | Conflicts |          ORIGINAL         |          LEARNT          | Progress |
c |           |    Vars  Clauses Literals |    Limit  Clauses Lit/Cl |          |
c ===============================================================================
c Switched to VSIDS.
c Switched to LRB.
c Switched to VSIDS.
c Switched to LRB.
c Switched to VSIDS.
c Switched to LRB.
c Switched to VSIDS.
c Switched to LRB.
c Switched to VSIDS.
c Switched to LRB.
c Switched to VSIDS.
c Switched to LRB.
c Switched to VSIDS.
c Switched to LRB.
c Switched to VSIDS.
c Switched to LRB.
c Switched to VSIDS.
c Switched to LRB.
c Switched to VSIDS.
c Switched to LRB.
c Switched to VSIDS.
c Switched to LRB.
c Switched to VSIDS.
c Switched to LRB.
c Switched to VSIDS.
c Switched to LRB.
c Switched to VSIDS.
c Switched to LRB.
c Switched to VSIDS.
c Switched to LRB.
c Switched to VSIDS.
c Switched to LRB.
c Switched to VSIDS.
c ===============================================================================
restarts                  : 79539
conflicts                 : 19210411       (5445 /sec)
decisions                 : 76269059       (0.00 % random) (21617 /sec)
propagations              : 7442690211     (2109480 /sec)
conflict literals         : 1656268285     (22.30 % deleted)

conflicts w/ DIP found    : 13264001       (69.05 % of conflicts)
conflicts w/ dangerous DIP: 0              (0.00 % of conflicts)
conflicts w/ DIP-learning : 197293         (1.03 % of conflicts)
decisions on ext vars     : 4824664        (6.33 % of decisions)
total ext vars            : 19918       
tried delete ext vars     : 4043        
deleted ext vars          : 4043        
max ext vars              : 15875       

Memory used               : 632.00 MB
CPU time                  : 3528.21 s
DIP computation time      : 126.451 s (3.58 % of total time)
ER_sel time               : 26.8275 s
ER_add time               : 0.076207 s
ER_delC time              : 0 s
ER_delV time              : 0.263887 s
ER_sub time               : 30.9805 s
ER_stat time              : 0 s

INDETERMINATE
